Co P
   1.0
     7.5489997863999996    0.0000000000000000    0.0000000000000000
     0.0000000000000000    6.5590000151999996    0.0000000000000000
     0.0000000000000000    0.0000000000000000   29.2166996001999983
Co P
  32   32
Direct
  0.2407999930000031  0.3720799984999985  0.2816900010000012
  0.2407999930000031  0.8720799984999985  0.2816900010000012
  0.7407900090000012  0.1220799984999985  0.2816900010000012
  0.7407900090000012  0.6220799984999985  0.2816900010000012
  0.0264299999999977  0.1220799984999985  0.3323000070000006
  0.0264299999999977  0.6220799984999985  0.3323000070000006
  0.5264400240000029  0.3720799984999985  0.3323099910000025
  0.5264400240000029  0.8720799984999985  0.3323099910000025
  0.6958799960000022  0.3720799984999985  0.4103600079999978
  0.6958799960000022  0.8720799984999985  0.4103600079999978
  0.1958699970000026  0.1220799984999985  0.4103600079999978
  0.1958699970000026  0.6220799984999985  0.4103600079999978
  0.4815100129999976  0.1220799984999985  0.4609700139999973
  0.4815100129999976  0.6220799984999985  0.4609700139999973
  0.9815199969999995  0.3720799984999985  0.4609799979999991
  0.9815199969999995  0.8720799984999985  0.4609799979999991
  0.6509400010000022  0.1220799984999985  0.5390200020000009
  0.6509400010000022  0.6220799984999985  0.5390200020000009
  0.1509599979999976  0.3720799984999985  0.5390300150000016
  0.1509599979999976  0.8720799984999985  0.5390300150000016
  0.9365800019999995  0.1220799984999985  0.5896400210000010
  0.9365800019999995  0.6220799984999985  0.5896400210000010
  0.4365899860000013  0.3720799984999985  0.5896400210000010
  0.4365899860000013  0.8720799984999985  0.5896400210000010
  0.1060200040000012  0.1220799984999985  0.6676899790000022
  0.1060200040000012  0.6220799984999985  0.6676899790000022
  0.6060299869999994  0.3720799984999985  0.6676999929999994
  0.6060299869999994  0.8720799984999985  0.6676999929999994
  0.3898291008047564  0.1220818956699719  0.7170221569285821
  0.3898291008047564  0.6220818956699719  0.7170221569285821
  0.8838775612757626  0.3720940046202348  0.7134607148544457
  0.8838775612757626  0.8720940046202348  0.7134607148544457
  0.0375000009999980  0.1220799984999985  0.2567000089999993
  0.0375000009999980  0.6220799984999985  0.2567000089999993
  0.4483799930000032  0.1220799984999985  0.2777499849999998
  0.4483799930000032  0.6220799984999985  0.2777499849999998
  0.8188499809999996  0.3720799984999985  0.3362500069999967
  0.8188499809999996  0.8720799984999985  0.3362500069999967
  0.2297299949999996  0.3720799984999985  0.3573000129999997
  0.2297299949999996  0.8720799984999985  0.3573000129999997
  0.4925799970000000  0.1220799984999985  0.3853699860000006
  0.4925799970000000  0.6220799984999985  0.3853699860000006
  0.9034600259999976  0.1220799984999985  0.4064100089999982
  0.9034600259999976  0.6220799984999985  0.4064100089999982
  0.2739300129999975  0.3720799984999985  0.4649200140000005
  0.2739300129999975  0.8720799984999985  0.4649200140000005
  0.6848099830000010  0.3720799984999985  0.4859600070000027
  0.6848099830000010  0.8720799984999985  0.4859600070000027
  0.9476500150000007  0.1220799984999985  0.5140399929999973
  0.9476500150000007  0.6220799984999985  0.5140399929999973
  0.3585300149999995  0.1220799984999985  0.5350800160000020
  0.3585300149999995  0.6220799984999985  0.5350800160000020
  0.7289999719999969  0.3720799984999985  0.5935900209999971
  0.7289999719999969  0.8720799984999985  0.5935900209999971
  0.1398800019999982  0.3720799984999985  0.6146299839999969
  0.1398800019999982  0.8720799984999985  0.6146299839999969
  0.4027299879999973  0.1220799984999985  0.6427000159999992
  0.4027299879999973  0.6220799984999985  0.6427000159999992
  0.8136100170000020  0.1220799984999985  0.6637499930000033
  0.8136100170000020  0.6220799984999985  0.6637499930000033
  0.1751090313141623  0.3720502372763118  0.7263004168056545
  0.1751090313141623  0.8720502372763117  0.7263004168056545
  0.5927132068701139  0.3720046448769054  0.7427489321352092
  0.5927132068701139  0.8720046448769054  0.7427489321352092
