FeP_011_2t1_Fe2P-hex_100
1.0
        6.1353998184         0.0000000000         0.0000000000
        0.0000000000         7.7667999268         0.0000000000
        0.0000000000         0.0000000000        29.0000000000
   Fe    P
   32   24
Selective dynamics
Direct
     0.360009998         0.106440000         0.109439999  F F F  # Fe
     0.360009998         0.606440008         0.109439999  F F F  # Fe
     0.694980025         0.856440008         0.109439999  F F F  # Fe
     0.694980025         0.356440008         0.109439999  F F F  # Fe
     0.079820000         0.856440008         0.153960004  F F F  # Fe
     0.079820000         0.356440008         0.153960004  F F F  # Fe
     0.747309983         0.106440000         0.180329993  F F F  # Fe
     0.747309983         0.606440008         0.180329993  F F F  # Fe
     0.247309998         0.106440000         0.212090001  F F F  # Fe
     0.247309998         0.606440008         0.212090001  F F F  # Fe
     0.579819977         0.856440008         0.238460004  F F F  # Fe
     0.579819977         0.356440008         0.238460004  F F F  # Fe
     0.860010028         0.106440000         0.282979995  F F F  # Fe
     0.860010028         0.606440008         0.282979995  F F F  # Fe
     0.194979995         0.856440008         0.282979995  F F F  # Fe
     0.194979995         0.356440008         0.282979995  F F F  # Fe
     0.168720007         0.594039977         0.354559988  F F F  # Fe
     0.668720007         0.594039977         0.354559988  F F F  # Fe
     0.418720007         0.094760001         0.354770005  F F F  # Fe
     0.918720007         0.094760001         0.354770005  F F F  # Fe
     0.168720007         0.870109975         0.408239990  F F F  # Fe
     0.668720007         0.870109975         0.408239990  F F F  # Fe
     0.418720007         0.370829999         0.408450007  F F F  # Fe
     0.918720007         0.370829999         0.408450007  F F F  # Fe
     0.168720007         0.038810000         0.487650007  T T T  # Fe
     0.668720007         0.038810000         0.487650007  T T T  # Fe
     0.418720007         0.539520025         0.487859994  T T T  # Fe
     0.918720007         0.539520025         0.487859994  T T T  # Fe
     0.168720007         0.314880013         0.541329980  T T T  # Fe
     0.668720007         0.314880013         0.541329980  T T T  # Fe
     0.418720007         0.815599978         0.541540027  T T T  # Fe
     0.918720007         0.815599978         0.541540027  T T T  # Fe
     0.951539993         0.106440000         0.109439999  F F F  # P
     0.951539993         0.606440008         0.109439999  F F F  # P
     0.451539993         0.856440008         0.167290002  F F F  # P
     0.451539993         0.356440008         0.167290002  F F F  # P
     0.951539993         0.856440008         0.225130007  F F F  # P
     0.951539993         0.356440008         0.225130007  F F F  # P
     0.451539993         0.106440000         0.282979995  F F F  # P
     0.451539993         0.606440008         0.282979995  F F F  # P
     0.418720007         0.381969988         0.331400007  F F F  # P
     0.918720007         0.381969988         0.331400007  F F F  # P
     0.418720007         0.807569981         0.349220008  F F F  # P
     0.918720007         0.807569981         0.349220008  F F F  # P
     0.168720007         0.157299995         0.413780004  F F F  # P
     0.668720007         0.157299995         0.413780004  F F F  # P
     0.168720007         0.582899988         0.431620002  F F F  # P
     0.668720007         0.582899988         0.431620002  F F F  # P
     0.418720007         0.826730013         0.464480013  T T T  # P
     0.918720007         0.826730013         0.464480013  T T T  # P
     0.418720007         0.252330005         0.482309997  T T T  # P
     0.918720007         0.252330005         0.482309997  T T T  # P
     0.168720007         0.027670000         0.564710021  T T T  # P
     0.668720007         0.027670000         0.564710021  T T T  # P
     0.182260007         0.606980026         0.575299978  T T T  # P
     0.682259977         0.606980026         0.575299978  T T T  # P
