title
1.
2.849223500 2.849223500 5.698447000
5.698447000 2.849223500 2.849223500
-5.698447000 5.698447000 -5.698447000
3 2 5
Cartesian
1.424611750 1.424611750 1.424611750    O
-1.424611750 7.123058750 -1.424611750    O
4.273835250 7.123058750 4.273835250    O
1.424611750 7.123058750 1.424611750    S
7.123058750 7.123058750 7.123058750    S
5.698447000 5.698447000 5.698447000    Zn
2.849223500 11.396894000 2.849223500    Zn
-2.849223500 5.698447000 -2.849223500    Zn
0.000000000 5.698447000 0.000000000    Zn
2.849223500 5.698447000 2.849223500    Zn
