Diamond
1.0000
2.522108400  0.0  0.0
1.261054201  2.184209947  0.0
1.261054201  0.728069982  2.059292887
C B
1 1
Selective dynamics
Direct
0.50  0.50  0.50 T T T #C
0.75  0.75  0.75 F T F #B
