title
1.
4.515000000 0.000000000 -4.515000000
4.515000000 -4.515000000 0.000000000
0.000000000 -4.515000000 -4.515000000
2 1 6 1
Cartesian
9.030000000 -9.030000000 -9.030000000    Ba_sv
4.515000000 -4.515000000 -4.515000000    Ba_sv
6.772500000 -6.772500000 -6.772500000    In
9.030000000 -6.772500000 -6.772500000    O
6.772500000 -4.515000000 -6.772500000    O
6.772500000 -6.772500000 -4.515000000    O
4.515000000 -6.772500000 -6.772500000    O
6.772500000 -9.030000000 -6.772500000    O
6.772500000 -6.772500000 -9.030000000    O
2.257500000 -2.257500000 -2.257500000    Sn
