FeS2,exp
1.0000
    5.418318     0.000000     0.000000
   -0.000000     5.418318     0.000000
   -0.000000    -0.000000     5.418318
     S     Fe 
     8      4 
direct
    0.115000     0.885000     0.385000 	 # S 
    0.385000     0.115000     0.885000 	 # S 
    0.885000     0.385000     0.115000 	 # S 
    0.615000     0.615000     0.615000 	 # S 
    0.885000     0.115000     0.615000 	 # S 
    0.615000     0.885000     0.115000 	 # S 
    0.115000     0.615000     0.885000 	 # S 
    0.385000     0.385000     0.385000 	 # S 
    0.500000     0.500000     0.000000 	 # Fe 
    0.000000     0.500000     0.500000 	 # Fe 
    0.500000     0.000000     0.500000 	 # Fe 
    0.000000     0.000000     0.000000 	 # Fe 
