title                                   
   1.00000000000000     
     2.5001976630748191    2.4342357606961431    4.9896720545123951
     4.9896720545123951    2.4342357606961431    2.5001976630748191
    -4.9856341080276856    4.8471268148301014   -4.9856341080276856
   O    S    Zn
     3     2     5
Direct
  0.1986268421929697  0.1986268421929697  0.0620468453070552
  0.4033056993330918  0.4033056993330918  0.8376134635080260
  0.7974203353747619  0.7974203353747619  0.4500539435765423
  0.6074698633682284  0.6074698633682284  0.6708848467784775
 -0.0123852523564563 -0.0123852523564563  0.2246283966182830
  0.7783453778042573  0.7783453778042573  0.2012272631062924
 -0.0010020644454389 -0.0010020644454389 -0.0412398654207104
  0.2346811507749659  0.2346811507749659  0.8529668517448189
  0.3823382806126167  0.3823382806126167  0.5872851642989463
  0.6111997673410038  0.6111997673410038  0.4045330904822690
 
  0.00000000E+00  0.00000000E+00  0.00000000E+00
  0.00000000E+00  0.00000000E+00  0.00000000E+00
  0.00000000E+00  0.00000000E+00  0.00000000E+00
  0.00000000E+00  0.00000000E+00  0.00000000E+00
  0.00000000E+00  0.00000000E+00  0.00000000E+00
  0.00000000E+00  0.00000000E+00  0.00000000E+00
  0.00000000E+00  0.00000000E+00  0.00000000E+00
  0.00000000E+00  0.00000000E+00  0.00000000E+00
  0.00000000E+00  0.00000000E+00  0.00000000E+00
  0.00000000E+00  0.00000000E+00  0.00000000E+00
