title
1.
0.000000000 -4.515000000 -4.515000000
0.000000000 4.515000000 -4.515000000
4.515000000 0.000000000 0.000000000
2 1 5 1
Cartesian
4.515000000 0.000000000 -4.515000000    Ba_sv
4.515000000 0.000000000 -9.030000000    Ba_sv
2.257500000 2.257500000 -6.772500000    In
2.257500000 0.000000000 -6.772500000    O
2.257500000 -2.257500000 -4.515000000    O
4.515000000 2.257500000 -6.772500000    O
2.257500000 0.000000000 -2.257500000    O
2.257500000 2.257500000 -4.515000000    O
2.257500000 -2.257500000 -6.772500000    Sn
