title                                   
   1.00000000000000     
     0.0000000000000000   -4.3145820746213737   -4.3145820746213737
     0.0000000000000000    4.3145820746213737   -4.3145820746213737
     4.1568078444962140    0.0000000000000000    0.0000000000000000
   Ba   In   O    Sn
     2     1     5     1
Direct
  0.5000000000000000  0.5000000000000000  0.0000000000000000
  0.0000000000000000  0.0000000000000000  0.0000000000000000
  0.5000000000000000  0.0000000000000000  0.5000000000000000
  0.7607888008556039  0.7392111991443961  0.5000000000000000
  0.7607888008556039  0.2607888008556039  0.5000000000000000
  0.5000000000000000  0.0000000000000000  0.0000000000000000
  0.2392111991443961  0.2607888008556039  0.5000000000000000
  0.2392111991443961  0.7392111991443961  0.5000000000000000
  0.0000000000000000  0.5000000000000000  0.5000000000000000
 
  0.00000000E+00  0.00000000E+00  0.00000000E+00
  0.00000000E+00  0.00000000E+00  0.00000000E+00
  0.00000000E+00  0.00000000E+00  0.00000000E+00
  0.00000000E+00  0.00000000E+00  0.00000000E+00
  0.00000000E+00  0.00000000E+00  0.00000000E+00
  0.00000000E+00  0.00000000E+00  0.00000000E+00
  0.00000000E+00  0.00000000E+00  0.00000000E+00
  0.00000000E+00  0.00000000E+00  0.00000000E+00
  0.00000000E+00  0.00000000E+00  0.00000000E+00
